3 40 1 10
4 5 13 10 17 8 6 13 12 16 11 8 3 15 20 10 8 18 12 15 1 7 11 11 9 2 18 5 2 17 18 5 4 8 17 9 16 7 13 10 
5.73 11.84 7.27 6.29 10.73 6.22 6.02 1.16 1.04 9.82 11.29 10.06 11.37 9.89 4.55 3.35 3.46 10.56 14.38 6.55 5.6 1.04 1.17 10.22 13.87 0.37 3.79 2.32 6.29 6.44 9.04 13.29 7.55 2.35 3.51 9.8 3.8 4.54 8.07 5.83 
8 8 8 8 8 8 8 8 8 8 8 8 8 8 8 8 8 8 8 8 8 8 8 8 8 8 8 8 8 8 8 8 8 8 8 8 8 8 8 8 
2.06 2.4 14.41 1.57 4.2 13.41 2.38 3.27 2.93 4.19 3.13 4.52 14.61 7.88 6.88 1.05 12.08 8.67 13.2 8.28 1.45 10.01 9.88 10.81 13.14 1.68 3.67 5.46 14.93 8.48 8.56 5.75 8.28 11.96 15.91 1.12 2.9 0.84 14.88 3.34 
1 1 1 1 1 1 1 1 1 1 1 1 1 1 1 1 1 1 1 1 1 1 1 1 1 1 1 1 1 1 1 1 1 1 1 1 1 1 1 1 
1 1 1 1 1 1 1 1 1 1 1 1 1 1 1 1 1 1 1 1 1 1 1 1 1 1 1 1 1 1 1 1 1 1 1 1 1 1 1 1 
1 1 1 1 1 1 1 1 1 1 1 1 1 1 1 1 1 1 1 1 1 1 1 1 1 1 1 1 1 1 1 1 1 1 1 1 1 1 1 1 
0.01 0.01 0.01 0.01 0.01 0.01 0.01 0.01 0.01 0.01 0.01 0.01 0.01 0.01 0.01 0.01 0.01 0.01 0.01 0.01 0.01 0.01 0.01 0.01 0.01 0.01 0.01 0.01 0.01 0.01 0.01 0.01 0.01 0.01 0.01 0.01 0.01 0.01 0.01 0.01 
0.02 0.02 0.02 0.02 0.02 0.02 0.02 0.02 0.02 0.02 0.02 0.02 0.02 0.02 0.02 0.02 0.02 0.02 0.02 0.02 0.02 0.02 0.02 0.02 0.02 0.02 0.02 0.02 0.02 0.02 0.02 0.02 0.02 0.02 0.02 0.02 0.02 0.02 0.02 0.02 
1 1 1 1 1 1 1 1 1 1 1 1 1 1 1 1 1 1 1 1 1 1 1 1 1 1 1 1 1 1 1 1 1 1 1 1 1 1 1 1 
